
read_data	inputFiles/binary.lmpsys
  orthogonal box = (0 0 0) to (28.8344 28.8344 28.8344)
  1 by 2 by 2 MPI processor grid
  reading atoms ...
  512 atoms
  0 = max # of 1-2 neighbors
  0 = max # of 1-3 neighbors
  0 = max # of 1-4 neighbors
  1 = max # of special neighbors

pair_style	lj/cut 10.0
pair_coeff   	1 1 0.4 3.4 10.0
pair_coeff   	2 2 0.4 3.4 10.0
pair_coeff   	1 2 0.4 3.4 3.4

timestep	1.0
neighbor	2.0 bin
neigh_modify	every 10 delay 0 check yes

minimize 	1.0e-4 1.0e-6 1000 10000
WARNING: Resetting reneighboring criteria during minimization (../min.cpp:168)
Neighbor list info ...
  1 neighbor list requests
  update every 1 steps, delay 0 steps, check yes
  master list distance cutoff = 12
Memory usage per processor = 6.59367 Mbytes
Step Temp E_pair E_mol TotEng Press 
       0            0    71756.319            0    71756.319    907641.64 
      48            0   -550.88714            0   -550.88714    1579.5334 

Loop time of 0.0349033 on 4 procs for 48 steps with 512 atoms
98.1% CPU use with 4 MPI tasks x 1 OpenMP threads

Minimization stats:
  Stopping criterion = energy tolerance
  Energy initial, next-to-last, final = 
         71756.3193705     -550.885451581      -550.88714003
  Force two-norm initial, final = 5558.73 2.99257
  Force max component initial, final = 284.478 0.287114
  Final line search alpha, max atom move = 4.64287e-06 1.33304e-06
  Iterations, force evaluations = 48 79

MPI task timings breakdown:
Section |  min time  |  avg time  |  max time  |%varavg| %total
---------------------------------------------------------------
Pair    | 0.0053782  | 0.012326   | 0.023275   |   6.1 | 35.31
Bond    | 4.2915e-06 | 6.7353e-06 | 1.0014e-05 |   0.1 |  0.02
Neigh   | 0.0017307  | 0.0031122  | 0.0048962  |   2.1 |  8.92
Comm    | 0.0051057  | 0.017634   | 0.025754   |   5.8 | 50.52
Output  | 0          | 0          | 0          |   0.0 |  0.00
Modify  | 0          | 0          | 0          |   0.0 |  0.00
Other   |            | 0.001825   |            |       |  5.23

Nlocal:    128 ave 160 max 96 min
Histogram: 2 0 0 0 0 0 0 0 0 2
Nghost:    1687 ave 1719 max 1655 min
Histogram: 2 0 0 0 0 0 0 0 0 2
Neighs:    5568 ave 7040 max 4096 min
Histogram: 2 0 0 0 0 0 0 0 0 2

Total # of neighbors = 22272
Ave neighs/atom = 43.5
Ave special neighs/atom = 0
Neighbor list builds = 6
Dangerous builds = 0
group           fixed type 1
256 atoms in group fixed
group           moved type 2
256 atoms in group moved

velocity       moved create 300.0 1234567

fix             1 fixed setforce 0.0 0.0 0.0
fix 		fxnvt all nvt temp 300.0 300.0 100.0

thermo_style    custom step temp pe ke etotal press
thermo          1000

dump            dmpall	all dcd	100 outputFiles/binary.dcd
run 		10000
Neighbor list info ...
  1 neighbor list requests
  update every 10 steps, delay 0 steps, check yes
  master list distance cutoff = 12
Memory usage per processor = 5.54756 Mbytes
Step Temp PotEng KinEng TotEng Press 
      48    149.70646   -550.88714    228.03197   -322.85517    2014.3401 
    1000    290.26903   -345.23698    442.13603     96.89905    6104.2513 
    2000    300.41116   -341.56107    457.58445    116.02339    6368.8751 
    3000    323.97892   -378.54238    493.48272    114.94034    5768.6317 
    4000    299.51397   -342.56109    456.21786    113.65677    6235.9663 
    5000    303.47266   -353.64933    462.24771    108.59838    6252.2879 
    6000    306.81232   -354.18475    467.33466    113.14991    6229.8906 
    7000     300.5198   -374.88462    457.74994    82.865328    5668.0504 
    8000    258.61649   -345.15764    393.92307    48.765434    6136.3499 
    9000    292.21257   -345.27241    445.09642    99.824013     6369.819 
   10000     311.5172   -377.00455    474.50111    97.496565     5761.893 
   10048    285.15439   -353.17602    434.34543     81.16941    6248.0078 

Loop time of 2.11677 on 4 procs for 10000 steps with 512 atoms
99.5% CPU use with 4 MPI tasks x 1 OpenMP threads
Performance: 408.169 ns/day  0.059 hours/ns  4724.181 timesteps/s

MPI task timings breakdown:
Section |  min time  |  avg time  |  max time  |%varavg| %total
---------------------------------------------------------------
Pair    | 0.91616    | 1.0971     | 1.278      |  14.0 | 51.83
Bond    | 0.00078702 | 0.00092787 | 0.0010312  |   0.3 |  0.04
Neigh   | 0.09403    | 0.10744    | 0.1155     |   2.5 |  5.08
Comm    | 0.59277    | 0.78333    | 0.9791     |  17.3 | 37.01
Output  | 0.0070653  | 0.0081437  | 0.010506   |   1.5 |  0.38
Modify  | 0.090676   | 0.092756   | 0.095178   |   0.5 |  4.38
Other   |            | 0.0271     |            |       |  1.28

Nlocal:    128 ave 140 max 115 min
Histogram: 1 1 0 0 0 0 0 0 0 2
Nghost:    1621.75 ave 1638 max 1610 min
Histogram: 1 1 0 0 0 1 0 0 0 1
Neighs:    5450.5 ave 6213 max 4835 min
Histogram: 2 0 0 0 0 0 1 0 0 1

Total # of neighbors = 21802
Ave neighs/atom = 42.582
Ave special neighs/atom = 0
Neighbor list builds = 180
Dangerous builds = 0







