
read_data	inputFiles/binary.lmpsys
  orthogonal box = (0 0 0) to (28.8344 28.8344 28.8344)
  1 by 2 by 2 MPI processor grid
  reading atoms ...
  512 atoms
  0 = max # of 1-2 neighbors
  0 = max # of 1-3 neighbors
  0 = max # of 1-4 neighbors
  1 = max # of special neighbors

pair_style	lj/cut 10.0
pair_coeff   	1 1 0.4 3.4 10.0
pair_coeff   	2 2 0.4 3.4 10.0
pair_coeff   	1 2 0.4 3.4 3.4

timestep	1.0
neighbor	2.0 bin
neigh_modify	every 10 delay 0 check yes

minimize 	1.0e-4 1.0e-6 1000 10000
WARNING: Resetting reneighboring criteria during minimization (../min.cpp:168)
Neighbor list info ...
  1 neighbor list requests
  update every 1 steps, delay 0 steps, check yes
  master list distance cutoff = 12
Memory usage per processor = 6.59367 Mbytes
Step Temp E_pair E_mol TotEng Press 
       0            0    71756.319            0    71756.319    907641.64 
      48            0   -550.88714            0   -550.88714    1579.5334 

Loop time of 0.0404863 on 4 procs for 48 steps with 512 atoms
99.4% CPU use with 4 MPI tasks x 1 OpenMP threads

Minimization stats:
  Stopping criterion = energy tolerance
  Energy initial, next-to-last, final = 
         71756.3193705     -550.885451581      -550.88714003
  Force two-norm initial, final = 5558.73 2.99257
  Force max component initial, final = 284.478 0.287114
  Final line search alpha, max atom move = 4.64287e-06 1.33304e-06
  Iterations, force evaluations = 48 79

MPI task timings breakdown:
Section |  min time  |  avg time  |  max time  |%varavg| %total
---------------------------------------------------------------
Pair    | 0.005276   | 0.014045   | 0.023543   |   6.3 | 34.69
Bond    | 2.861e-06  | 6.0797e-06 | 8.5831e-06 |   0.1 |  0.02
Neigh   | 0.0017321  | 0.0035049  | 0.0053241  |   2.4 |  8.66
Comm    | 0.0095277  | 0.020566   | 0.030832   |   6.0 | 50.80
Output  | 0          | 0          | 0          |   0.0 |  0.00
Modify  | 0          | 0          | 0          |   0.0 |  0.00
Other   |            | 0.002364   |            |       |  5.84

Nlocal:    128 ave 160 max 96 min
Histogram: 2 0 0 0 0 0 0 0 0 2
Nghost:    1687 ave 1719 max 1655 min
Histogram: 2 0 0 0 0 0 0 0 0 2
Neighs:    5568 ave 7040 max 4096 min
Histogram: 2 0 0 0 0 0 0 0 0 2

Total # of neighbors = 22272
Ave neighs/atom = 43.5
Ave special neighs/atom = 0
Neighbor list builds = 6
Dangerous builds = 0

fix 		fxnvt all nvt temp 300.0 300.0 100.0

thermo_style    custom step temp pe ke etotal press
thermo          1000

dump            dmpall	all dcd	100 outputFiles/binary.dcd
run 		100000
Neighbor list info ...
  1 neighbor list requests
  update every 10 steps, delay 0 steps, check yes
  master list distance cutoff = 12
Memory usage per processor = 5.54756 Mbytes
Step Temp PotEng KinEng TotEng Press 
      48            0   -550.88714            0   -550.88714    1579.5334 
    1000    51.219223   -536.55184     78.01681   -458.53503    2324.7299 
    2000    284.33009   -335.98548    433.08987    97.104397    6781.3271 
    3000    280.28245   -440.76305    426.92453   -13.838519     4248.808 
    4000    299.77966   -438.57998    456.62257    18.042585    4399.5716 
    5000    294.60354   -454.66098    448.73833   -5.9226429     4720.189 
    6000    294.77674   -485.48095    449.00215   -36.478804    4320.8097 
    7000    306.91274   -505.27692    467.48763   -37.789295    4659.4377 
    8000    314.45274   -540.78823    478.97251   -61.815723    4515.6943 
    9000    290.77036   -537.03824    442.89966   -94.138587    4796.4442 
   10000    297.09597   -545.43867    452.53478   -92.903887     5144.365 
   11000    318.72871   -624.18074    485.48564    -138.6951     4341.356 
   12000    297.91227   -618.11884    453.77817   -164.34067    4615.8514 
   13000    322.61564   -643.45857    491.40619   -152.05238    4378.5044 
   14000    302.94696   -669.32511    461.44698   -207.87813    4253.5517 
   15000     318.8627   -693.64079    485.68974   -207.95106    3932.4544 
   16000    292.97346   -656.51374     446.2554   -210.25834    4401.0906 
   17000    287.82626   -673.56255    438.41521   -235.14734     4192.556 
   18000    288.31546   -684.60613    439.16036   -245.44577    4280.6499 
   19000    306.49875   -691.61515    466.85703   -224.75811    4256.2129 
   20000    300.46946   -701.47173    457.67326   -243.79847    4030.0456 
   21000    300.96101   -704.82778    458.42199    -246.4058    4304.4447 
   22000    296.63426   -706.04282    451.83151   -254.21131    4477.7925 
   23000    290.06985   -715.15062    441.83264   -273.31798    4099.1646 
   24000    302.66917   -713.81639    461.02384   -252.79255     4125.221 
   25000    317.51605   -710.31869    483.63853   -226.68016    4173.7666 
   26000    302.09398   -698.20812    460.14772    -238.0604    4671.6392 
   27000     294.0901   -707.40189    447.95626   -259.44563    4257.3253 
   28000    297.11382    -720.9243    452.56197   -268.36232     3947.514 
   29000    302.16181   -713.76824    460.25104    -253.5172    4051.6467 
   30000    303.04829   -713.30189    461.60132   -251.70057    4264.1333 
   31000    295.03367   -734.85851     449.3935   -285.46502    3943.0064 
   32000    293.64312   -738.84729    447.27542   -291.57187    3871.3476 
   33000    287.95606   -726.15826    438.61292   -287.54534     4593.486 
   34000    299.20722   -743.16204    455.75062   -287.41142    4479.4664 
   35000    299.53736   -778.18755    456.25348   -321.93407    3693.4647 
   36000    303.90991    -777.1647    462.91373   -314.25097    4097.1857 
   37000     290.0887   -766.80077    441.86135   -324.93942    4298.9853 
   38000    306.07475   -779.48553    466.21121   -313.27432    3989.8479 
   39000    305.66709   -778.46994    465.59026   -312.87969    3946.7499 
   40000    296.13386   -758.93819     451.0693   -307.86889    4266.7261 
   41000    291.61164   -791.54291    444.18108   -347.36183    3833.6999 
   42000    285.94687   -803.69123    435.55254   -368.13869    3782.3041 
   43000      304.481   -780.32617    463.78361   -316.54257    4396.7316 
   44000    291.56718   -786.81079    444.11335   -342.69744    4062.3971 
   45000    312.09634   -785.14571    475.38326   -309.76245    4176.0194 
   46000    299.95866   -771.85689    456.89522   -314.96167    4109.6625 
   47000     289.6059   -794.22272    441.12595   -353.09677    3702.7548 
   48000    300.39058   -783.29889    457.55311   -325.74578    4134.8895 
   49000    289.61129   -799.47974    441.13416   -358.34558    4101.0268 
   50000    282.42045   -787.92761    430.18112   -357.74649    3893.8977 
   51000    293.45812   -810.15889    446.99364   -363.16525    3951.7431 
   52000    301.29746   -801.19856    458.93447    -342.2641    4096.7177 
   53000    312.14298   -836.32178    475.45429   -360.86749    3680.0454 
   54000    298.45243   -820.08088    454.60092   -365.47995    3907.9437 
   55000    301.47779   -822.84616    459.20914   -363.63702    3760.1317 
   56000    307.73637   -797.02552    468.74217   -328.28336    4257.8678 
   57000    296.62895   -796.22521    451.82342   -344.40179    4030.3936 
   58000    302.33227   -798.34031    460.51068   -337.82963    3845.0058 
   59000    299.17432   -790.04775    455.70051   -334.34724    4003.4695 
   60000    293.44564   -802.33984    446.97462   -355.36522    3864.8191 
   61000    290.40107    -800.2046    442.33714   -357.86746      3842.97 
   62000    297.13507   -823.53103    452.59434   -370.93669    3761.5368 
   63000    299.55292   -809.47158    456.27719   -353.19439    4154.8328 
   64000    286.61851   -818.91614    436.57558   -382.34056    3961.5161 
   65000    328.76572   -836.59748    500.77394   -335.82353     4038.807 
   66000    307.89072   -840.77474    468.97728   -371.79746    3908.9216 
   67000    308.85563   -820.06915    470.44703   -349.62212    4126.9026 
   68000    322.65695   -830.72245     491.4691   -339.25335    3953.3003 
   69000     299.9499   -834.17105    456.88186   -377.28919    4166.8905 
   70000    300.72541   -839.76878    458.06312   -381.70566    3735.8844 
   71000    288.81144   -844.19006    439.91583   -404.27423    3484.4796 
   72000    295.48369   -819.81705    450.07897   -369.73808    3995.1076 
   73000    311.60303   -823.55189    474.63184   -348.92005    4053.5289 
   74000    306.07317   -841.29202     466.2088   -375.08322    3734.2293 
   75000    293.37818   -848.32441    446.87187   -401.45255    3580.8352 
   76000    295.32457   -849.91833    449.83659   -400.08174    3774.4609 
   77000    293.38601   -827.04587    446.88379   -380.16208    3972.0185 
   78000    290.99656   -832.34657    443.24419   -389.10238    4013.2438 
   79000    288.46347   -823.10071    439.38581    -383.7149    4041.7023 
   80000    308.86015   -836.05926     470.4539   -365.60536    3937.1924 
   81000    314.75412   -819.44992    479.43157   -340.01835    4140.1557 
   82000    311.82889   -842.68108    474.97588    -367.7052    4103.2975 
   83000    298.98832   -853.33305    455.41719   -397.91586    3676.9792 
   84000    296.90862   -859.39323    452.24941   -407.14382    3460.3377 
   85000    306.18119   -835.56175    466.37333   -369.18842    4014.8549 
   86000    320.93601   -844.73638    488.84778    -355.8886    3996.1019 
   87000    308.12853    -807.3068    469.33951   -337.96728    4292.8332 
   88000     308.3982   -813.21971    469.75026   -343.46945    4232.4615 
   89000    295.39461   -834.82774    449.94328   -384.88446    4047.1019 
   90000    299.30271   -825.48953    455.89607   -369.59346    3745.4767 
   91000    282.87878   -829.77827    430.87924   -398.89903    4043.3201 
   92000    304.48052   -816.79413    463.78288   -353.01125    4273.9943 
   93000    300.23047   -821.97025    457.30923   -364.66102    4071.7658 
   94000    306.82184   -850.90298    467.34917   -383.55381    3569.6153 
   95000    285.28489   -815.61386    434.54422   -381.06964    3826.7606 
   96000    294.93107   -807.37955    449.23721   -358.14234    4107.3076 
   97000    290.87772   -811.90603    443.06317   -368.84286    4172.4406 
   98000    286.82544    -834.3952    436.89078   -397.50442    3756.4709 
   99000    307.70432   -815.82734    468.69336   -347.13399    4214.6993 
  100000    320.16689   -847.76057    487.67627    -360.0843    3663.9491 
  100048    313.87743   -833.41896     478.0962   -355.32276    3956.4194 

Loop time of 23.9014 on 4 procs for 100000 steps with 512 atoms
99.8% CPU use with 4 MPI tasks x 1 OpenMP threads
Performance: 361.486 ns/day  0.066 hours/ns  4183.860 timesteps/s

MPI task timings breakdown:
Section |  min time  |  avg time  |  max time  |%varavg| %total
---------------------------------------------------------------
Pair    | 13.037     | 13.548     | 14.167     |  11.4 | 56.68
Bond    | 0.0076745  | 0.0083668  | 0.0087206  |   0.4 |  0.04
Neigh   | 0.76111    | 0.79337    | 0.81969    |   2.4 |  3.32
Comm    | 7.6479     | 8.2518     | 8.8034     |  15.0 | 34.52
Output  | 0.066325   | 0.077476   | 0.10264    |   5.3 |  0.32
Modify  | 0.932      | 0.95653    | 0.97663    |   1.7 |  4.00
Other   |            | 0.2659     |            |       |  1.11

Nlocal:    128 ave 131 max 124 min
Histogram: 1 0 0 0 1 0 0 0 1 1
Nghost:    1524.75 ave 1546 max 1508 min
Histogram: 1 1 0 0 0 0 1 0 0 1
Neighs:    6745.5 ave 6970 max 6632 min
Histogram: 1 1 1 0 0 0 0 0 0 1

Total # of neighbors = 26982
Ave neighs/atom = 52.6992
Ave special neighs/atom = 0
Neighbor list builds = 1367
Dangerous builds = 0







